c 176_3_checker.cnf
c
c field = 176
c formula set type = 3_checker
c
p cnf 4 58
344 
346 
348 
-342 
345 
347 
349 
-343 
344 
346 
348 
-352 
345 
347 
349 
-353 
346 
348 
352 
-344 
347 
349 
353 
-345 
346 
348 
352 
-354 
347 
349 
353 
-355 
348 
352 
354 
-346 
349 
353 
355 
-347 
348 
352 
354 
-356 
349 
353 
355 
-357 
352 
354 
356 
-348 
353 
355 
357 
-349 
352 
354 
356 
-358 
353 
355 
357 
-359 
260 
290 
320 
-230 
261 
291 
321 
-231 
260 
290 
320 
-380 
261 
291 
321 
-381 
290 
320 
380 
-260 
291 
321 
381 
-261 
290 
320 
380 
-410 
291 
321 
381 
-411 
320 
380 
410 
-290 
321 
381 
411 
-291 
320 
380 
410 
-440 
321 
381 
411 
-441 
380 
410 
440 
-320 
381 
411 
441 
-321 
254 
286 
318 
-222 
255 
287 
319 
-223 
254 
286 
318 
-382 
255 
287 
319 
-383 
286 
318 
382 
-254 
287 
319 
383 
-255 
286 
318 
382 
-414 
287 
319 
383 
-415 
318 
382 
414 
-286 
319 
383 
415 
-287 
318 
382 
414 
-446 
319 
383 
415 
-447 
382 
414 
446 
-318 
383 
415 
447 
-319 
266 
294 
322 
-238 
267 
295 
323 
-239 
266 
294 
322 
-378 
267 
295 
323 
-379 
294 
322 
378 
-266 
295 
323 
379 
-267 
294 
322 
378 
-406 
295 
323 
379 
-407 
322 
378 
406 
-294 
323 
379 
407 
-295 
322 
378 
406 
-434 
323 
379 
407 
-435 
378 
406 
434 
-322 
379 
407 
435 
-323 
